
Gurobi 11.0.1 (win64) logging started Wed May 15 14:41:34 2024

Set parameter LogFile to value "output/solver_log2.txt"
Gurobi Optimizer version 11.0.1 build v11.0.1rc0 (win64 - Windows 11.0 (22631.2))

CPU model: 11th Gen Intel(R) Core(TM) i7-1165G7 @ 2.80GHz, instruction set [SSE2|AVX|AVX2|AVX512]
Thread count: 4 physical cores, 8 logical processors, using up to 8 threads

Optimize a model with 2947 rows, 762 columns and 56348 nonzeros
Model fingerprint: 0x95daf459
Variable types: 248 continuous, 514 integer (514 binary)
Coefficient statistics:
  Matrix range     [4e-01, 1e+05]
  Objective range  [1e+00, 1e+02]
  Bounds range     [1e+00, 1e+00]
  RHS range        [1e-02, 1e+05]

User MIP start produced solution with objective 39671.2 (0.03s)
User MIP start produced solution with objective 39671.2 (0.03s)
Loaded user MIP start with objective 39671.2

Presolve removed 360 rows and 273 columns
Presolve time: 0.09s
Presolved: 2587 rows, 489 columns, 51057 nonzeros
Variable types: 234 continuous, 255 integer (251 binary)

Root relaxation: objective 4.953409e+04, 926 iterations, 0.42 seconds (0.12 work units)

    Nodes    |    Current Node    |     Objective Bounds      |     Work
 Expl Unexpl |  Obj  Depth IntInf | Incumbent    BestBd   Gap | It/Node Time

     0     0 49534.0910    0   33 39671.2132 49534.0910  24.9%     -    0s
     0     0 49300.0092    0   86 39671.2132 49300.0092  24.3%     -    1s
     0     0 49293.9554    0   60 39671.2132 49293.9554  24.3%     -    1s
     0     0 49293.7348    0   80 39671.2132 49293.7348  24.3%     -    1s
     0     0 49106.6786    0   65 39671.2132 49106.6786  23.8%     -    1s
     0     0 49101.7686    0   72 39671.2132 49101.7686  23.8%     -    1s
     0     0 48820.2493    0   72 39671.2132 48820.2493  23.1%     -    1s
     0     0 48814.3606    0   70 39671.2132 48814.3606  23.0%     -    1s
     0     0 48814.3606    0   67 39671.2132 48814.3606  23.0%     -    1s
     0     0 47625.8145    0   78 39671.2132 47625.8145  20.1%     -    2s
     0     0 47602.5451    0   79 39671.2132 47602.5451  20.0%     -    2s
     0     0 45166.4548    0   74 39671.2132 45166.4548  13.9%     -    2s
     0     0 45166.4548    0   72 39671.2132 45166.4548  13.9%     -    2s
     0     0 45158.8458    0   76 39671.2132 45158.8458  13.8%     -    2s
     0     0 45158.8458    0   71 39671.2132 45158.8458  13.8%     -    2s
     0     0 45158.8458    0   74 39671.2132 45158.8458  13.8%     -    2s
     0     0 45158.8458    0   75 39671.2132 45158.8458  13.8%     -    2s
     0     0 45158.8458    0   72 39671.2132 45158.8458  13.8%     -    2s
     0     0 45158.8458    0   77 39671.2132 45158.8458  13.8%     -    2s
     0     0 44735.6543    0   69 39671.2132 44735.6543  12.8%     -    2s
     0     0 44735.6543    0   70 39671.2132 44735.6543  12.8%     -    2s
     0     0 44688.2418    0   80 39671.2132 44688.2418  12.6%     -    3s
     0     0 44688.2418    0   80 39671.2132 44688.2418  12.6%     -    3s
     0     2 44688.2418    0   80 39671.2132 44688.2418  12.6%     -    3s
    31    21 41407.9247    6   57 39671.2132 44394.0454  11.9%   988    5s
H   68    11                    39704.666915 44040.3255  10.9%   643    5s
H  337   128                    39707.541981 44040.3255  10.9%   191    6s
H  341   128                    39707.811991 44040.3255  10.9%   189    6s
H  401   165                    39711.072509 44040.3255  10.9%   168    6s
H  402   165                    39711.253653 44040.3255  10.9%   168    6s
H  820   462                    39713.569406 39733.8762  0.05%   100    7s
H 1999   845                    39713.657715 39733.8755  0.05%  57.5    9s
H 2059  1003                    39714.040768 39733.8755  0.05%  58.4   10s
H 2286   982                    39715.436565 39733.8755  0.05%  57.9   12s
H 2287   698                    39723.538878 39733.8755  0.03%  57.8   12s
  3459  1178 39733.7580   22   80 39723.5389 39733.8688  0.03%  49.6   15s
  3580  1215 39733.8576   23   39 39723.5389 39733.8688  0.03%  63.2   20s
H 5168  1382                    39723.753039 39733.8688  0.03%  54.6   22s
H 7326  1185                    39726.799681 39733.8688  0.02%  43.9   24s
  7829  1199 39732.1634   37   32 39726.7997 39733.8688  0.02%  41.3   25s
H 7859   748                    39731.197115 39733.8688  0.01%  41.3   25s

Cutting planes:
  Implied bound: 3
  MIR: 14

Explored 8262 nodes (338059 simplex iterations) in 25.47 seconds (60.74 work units)
Thread count was 8 (of 8 available processors)

Solution count 10: 39731.2 39731.2 39726.8 ... 39711.3

Optimal solution found (tolerance 1.00e-04)
Best objective 3.973119711462e+04, best bound 3.973386879826e+04, gap 0.0067%
